Using license file /home/anupa/gurobi.lic
Academic license - for non-commercial use only

Gurobi Optimizer version 9.0.0 build v9.0.0rc2 (linux64)
Optimize a model with 22 rows, 27 columns and 58 nonzeros
Model fingerprint: 0x2e4f5140
Model has 2 general constraints
Variable types: 27 continuous, 0 integer (0 binary)
Coefficient statistics:
  Matrix range     [8e-02, 1e+04]
  Objective range  [1e+00, 1e+00]
  Bounds range     [1e+00, 3e+04]
  RHS range        [1e+00, 5e+01]

---------------------------------------------------------------------------
Multi-objectives: starting optimization with 4 objectives ... 
---------------------------------------------------------------------------

Multi-objectives: applying initial presolve ...
---------------------------------------------------------------------------

Presolve removed 8 rows and 5 columns
Presolve time: 0.00s
Presolved: 14 rows and 22 columns
---------------------------------------------------------------------------

Multi-objectives: optimize objective 1 (tot_mem_cpu) ...
---------------------------------------------------------------------------

Presolve removed 7 rows and 8 columns
Presolve time: 0.00s
Presolved: 7 rows, 14 columns, 24 nonzeros
Presolved model has 2 SOS constraint(s)
Variable types: 12 continuous, 2 integer (2 binary)

Root relaxation: objective 9.618664e+03, 7 iterations, 0.00 seconds

    Nodes    |    Current Node    |     Objective Bounds      |     Work
 Expl Unexpl |  Obj  Depth IntInf | Incumbent    BestBd   Gap | It/Node Time

*    0     0               0    9618.6640625 9618.66406  0.00%     -    0s

Explored 0 nodes (7 simplex iterations) in 0.00 seconds
Thread count was 12 (of 12 available processors)

Solution count 1: 9618.66 

Optimal solution found (tolerance 1.00e-04)
Best objective 9.618664062500e+03, best bound 9.618664062500e+03, gap 0.0000%
---------------------------------------------------------------------------

Multi-objectives: optimize objective 2 (cpu_mem_load) ...
---------------------------------------------------------------------------


Loaded user MIP start with objective 4809.33

Presolve removed 8 rows and 9 columns
Presolve time: 0.00s
Presolved: 7 rows, 13 columns, 25 nonzeros
Presolved model has 2 SOS constraint(s)
Variable types: 11 continuous, 2 integer (2 binary)

Root relaxation: cutoff, 3 iterations, 0.00 seconds

    Nodes    |    Current Node    |     Objective Bounds      |     Work
 Expl Unexpl |  Obj  Depth IntInf | Incumbent    BestBd   Gap | It/Node Time

     0     0     cutoff    0      4809.33203 4809.33203  0.00%     -    0s

Explored 0 nodes (3 simplex iterations) in 0.00 seconds
Thread count was 12 (of 12 available processors)

Solution count 1: 4809.33 

Optimal solution found (tolerance 1.00e-04)
Best objective 4.809332031250e+03, best bound 4.809332031250e+03, gap 0.0000%
---------------------------------------------------------------------------

Multi-objectives: optimize objective 3 (tot_mem_p4) ...
---------------------------------------------------------------------------


Loaded user MIP start with objective 576

Presolve removed 10 rows and 17 columns
Presolve time: 0.00s
Presolved: 6 rows, 5 columns, 14 nonzeros
Variable types: 4 continuous, 1 integer (1 binary)

Root relaxation: objective 5.750381e+02, 0 iterations, 0.00 seconds

    Nodes    |    Current Node    |     Objective Bounds      |     Work
 Expl Unexpl |  Obj  Depth IntInf | Incumbent    BestBd   Gap | It/Node Time

*    0     0               0     575.0381316  575.03813  0.00%     -    0s

Explored 0 nodes (0 simplex iterations) in 0.00 seconds
Thread count was 12 (of 12 available processors)

Solution count 1: 575.038 

Optimal solution found (tolerance 1.00e-04)
Warning: max constraint violation (1.0000e-06) exceeds tolerance
Best objective 5.750381315938e+02, best bound 5.750381315938e+02, gap 0.0000%
---------------------------------------------------------------------------

Multi-objectives: optimize objective 4 (p4_mem_load) ...
---------------------------------------------------------------------------


Loaded user MIP start with objective 575.038

Presolve removed 11 rows and 17 columns
Presolve time: 0.00s
Presolved: 6 rows, 5 columns, 14 nonzeros
Found heuristic solution: objective 575.0381326
Variable types: 4 continuous, 1 integer (1 binary)

Explored 0 nodes (0 simplex iterations) in 0.00 seconds
Thread count was 12 (of 12 available processors)

Solution count 2: 575.038 575.038 

Optimal solution found (tolerance 1.00e-04)
Warning: max constraint violation (1.0000e-06) exceeds tolerance
Best objective 5.750381315938e+02, best bound 5.750381315938e+02, gap 0.0000%

---------------------------------------------------------------------------
Multi-objectives: solved in 0.00 seconds, solution count 3

--------------------------------------------------
Model update took: 3.6716461181640625e-05 seconds
Model optimize took: 0.003748655319213867 seconds
--------------------------------------------------

Solution quality statistics for model netmon :
  Maximum violation:
    Bound       : 0.00000000e+00
    Constraint  : 1.13686838e-13 (accuracy_1_sk_1[1])
    Integrality : 0.00000000e+00

Sketch (0) (cm: eps0: 0.03125, del0: 0.05, min_mem: 0.33984375)
Par: 1, Rows: 3
0.000    0.000    1.000    
Total frac: 1.000

Sketch (1) (cm: eps0: 3.125e-06, del0: 0.05, min_mem: 3397.85546875)
Par: 1, Rows: 3
0.472    0.056    0.472    
Total frac: 1.000

Sketch (2) (cm: eps0: 0.625, del0: 0.025, min_mem: 0.01953125)
Par: 1, Rows: 4
0.000    0.000    1.000    
Total frac: 1.000

Device (0) cpu_1:
Rows total: 1.4155437185862867
Mem total: 4809.812965453125

Device (1) p4_1:
Rows total: 0.16923560665907159
Mem total: 575.0381315937502

Device (2) cpu_2:
Rows total: 8.415220674754643
Mem total: 4809.812965453125
--------------------------------------------------
Changed value of parameter NonConvex to 2
   Prev: -1  Min: -1  Max: 2  Default: -1
Changed value of parameter NonConvex to 2
   Prev: -1  Min: -1  Max: 2  Default: -1

Throughput: 56.00000000000043 Mpps, ns per packet: 17.85714285714272
Resources: 113.19654072005339

Sketch (0) (cm: eps0: 0.03125, del0: 0.05, min_mem: 0.33984375)
Par: 1, Rows: 3
0.000    0.000    1.000    
Total frac: 1.000

Sketch (1) (cm: eps0: 3.125e-06, del0: 0.05, min_mem: 3397.85546875)
Par: 1, Rows: 3
0.472    0.056    0.472    
Total frac: 1.000

Sketch (2) (cm: eps0: 0.625, del0: 0.025, min_mem: 0.01953125)
Par: 1, Rows: 4
0.000    0.000    1.000    
Total frac: 1.000

Device (0) cpu_1:
cores_sketch: 1.0, cores_dpdk: 2.0
Rows total: 1.4155437185862867
Mem total: 4809.812965453125
Throughput: 56.00000000000043

Device (1) p4_1:
Rows total: 0.16923560665907159
Mem total: 575.0381315937502
Throughput: 148.0

Device (2) cpu_2:
cores_sketch: 5.000000000000001, cores_dpdk: 1.9999999999999993
Rows total: 8.415220674754643
Mem total: 4809.812965453125
Throughput: 56.00000000000043
--------------------------------------------------
